1395980
0 19 190821
19 18 59142
18 21 8374
21 25 11584
25 10 13666
10 15 17049
15 28 55904
28 13 53996
13 4 14271
4 12 6993
12 24 1644
24 17 7367
17 3 7921
3 8 8394
8 27 10293
27 1 6275
1 29 6203
29 5 7944
5 14 10550
14 20 19591
20 22 92633
22 2 112202
2 6 5029
6 26 7369
26 7 98591
7 11 61690
11 9 116496
9 16 52693
16 23 276644
23 0 54636
